sat
(= row_11 0b01101100110010)
(= col_1 0b10100110011001)
(= row_2 0b00101011011001)
(= row_7 0b01010010110011)
(= row_3 0b00110110100110)
(= col_3 0b11011001010100)
(= col_10 0b01010010011011)
(= row_10 0b00110011011001)
(= row_12 0b10010011001101)
(= col_7 0b11010010101100)
(= col_8 0b00100101011011)
(= col_11 0b10110101001100)
(= row_4 0b11010100101010)
(= col_12 0b00101010110011)
(= col_2 0b01001001101011)
(= row_5 0b01001011010101)
(= row_6 0b10101101001100)
(= row_8 0b10101100110010)
(= row_9 0b11001001001101)
(= col_9 0b10101101100100)
(= row_1 0b11010100100101)
(= col_0 0b01011010100110)
(= row_0 0b11010100100110)
(= col_13 0b01001101010011)
(= col_4 0b10110110100100)
(= col_5 0b00100110011011)
(= row_13 0b00101011011010)
(= col_6 0b11011001100100)
